5 5
8 4 3 14 2 8 1 13 4 12 3 4 17 1 10 5 8 3 3 4 1 14 4 12 1 2 4 1 1 14 1 5 15 4 4 20 5 11 2 13 1 18 1 3 9
4 3 4 20 5 7 2 19 2 2 17 1 5 2 2 6 5 4 3 2 14 1 6 5 13
4 3 5 12 3 7 4 9 1 5 11 3 1 12 5 12 4 11 4 5 6 1 5 4 16 2 5
4 2 1 16 5 3 1 5 6 5 2 16 1 13 5 20 4 17 3 11 1 1 19
7 4 3 20 1 6 5 16 4 8 4 1 2 2 18 5 17 4 12 5 2 20 4 9 3 17 5 9 1 6 1 1 20 1 3 15 4 3 5 2 8 4 6 1 20 2 4 5 1 12